
Gurobi 9.1.2 (linux64) logging started Thu Mar 31 09:07:36 2022

Changed value of parameter LogFile to ny_v-N6.log
   Prev:   Default: 
Changed value of parameter MIPFocus to 1
   Prev: 0  Min: 0  Max: 3  Default: 0
Changed value of parameter TimeLimit to 600.0
   Prev: inf  Min: 0.0  Max: inf  Default: inf
Warning: variables 0 and 130 have the same name "X[N2,N1]"
Warning: linear constraint 102 and linear constraint 103 have the same name "weight-constr-t5"
Warning: to let Gurobi read it back, use rlp format
Gurobi Optimizer version 9.1.2 build v9.1.2rc0 (linux64)
Thread count: 32 physical cores, 64 logical processors, using up to 32 threads
Optimize a model with 837 rows, 780 columns and 2772 nonzeros
Model fingerprint: 0xc7b65007
Variable types: 96 continuous, 684 integer (684 binary)
Coefficient statistics:
  Matrix range     [1e+00, 1e+06]
  Objective range  [2e-01, 2e-01]
  Bounds range     [1e+00, 5e+05]
  RHS range        [1e+00, 1e+06]
Presolve removed 228 rows and 252 columns
Presolve time: 0.01s
Presolved: 609 rows, 528 columns, 3867 nonzeros
Variable types: 90 continuous, 438 integer (438 binary)
Found heuristic solution: objective 104.4999998

Root relaxation: objective 1.500000e+01, 78 iterations, 0.00 seconds

    Nodes    |    Current Node    |     Objective Bounds      |     Work
 Expl Unexpl |  Obj  Depth IntInf | Incumbent    BestBd   Gap | It/Node Time

*    0     0               0      15.0000000   15.00000  0.00%     -    0s

Explored 0 nodes (639 simplex iterations) in 0.02 seconds
Thread count was 32 (of 64 available processors)

Solution count 2: 15 104.5 

Optimal solution found (tolerance 1.00e-04)
Best objective 1.500000000000e+01, best bound 1.500000000000e+01, gap 0.0000%
